

#  Created by Wassim Kassem 18/07/2016

units       metal
dimension   3
boundary    p      p     p  #layers are stacked along z
atom_style  atomic          #no need for charges or bonds

#------------ Constant parameters -------------------------------
variable   sqrt3      equal  sqrt(3)

#------------ Variable parameters -------------------------------
variable    T     index  300 #Kelvins - temperature for equilibration of the system
variable    T2    equal 2*$T

#------------ Create the box ----------------------------------
read_data   ${fdata}
#change_box  all boundary ${bcx} ${bcy} ${bcz} #change boundary conditions after reading atoms
#------------------ Define rigid zones --------------------------
variable      rgbl equal 0 # rigid boundary layer. Typical cutoff radii for potentials are 5 to 8 A

variable      tmp1 equal xlo+${rgbl}
variable      tmp2 equal xhi-${rgbl}
variable      tmp3 equal ylo+${rgbl}
variable      tmp4 equal yhi-${rgbl}
variable      tmp5 equal zlo+${rgbl}
variable      tmp6 equal zhi-${rgbl}

region        rgmobile block INF INF INF INF INF INF units box

group         freeatoms  region rgmobile
group         fixedatoms subtract all freeatoms

#----------------------------Define potential-------------------
mass        1 ${emass}
timestep    0.005

pair_style eam/fs
pair_coeff * * ${potfile} ${ename} #Terentyev, Bacon, Osetsky J. Phys. COndens. Matter. 20 2008 445007

variable    nil equal 0.0
fix         freez fixedatoms setforce 0.0 0.0 0.0
velocity    all set 0 0 0


#---------- Minmize forces ----------------------------------
variable      nmin index 20000

timestep      0.05
compute       mype all pe
compute       mype2 freeatoms pe/atom
variable      peatom    equal c_mype/count(all)  #PE per atom

variable      myradius  atom  sqrt(y^2+z^2)

thermo        100
thermo_style  custom step v_peatom press lx ly lz
dump          min all custom 1000 ${res}/dump.min.dat id x y z c_mype2

min_style     quickmin
minimize      1e-20 1e-30 ${nmin} 100000
min_style     cg
#fix           bxrlx all box/relax x 0.0 y 0.0 fixedpoint 0 0 0
#minimize      1e-35 1e-50 50000 1000000
#unfix         bxrlx

undump        min

#----------- Equilibrate -----------------------------------
timestep        0.005
variable        teq index 50        #ps
variable        neq equal ${teq}/dt


reset_timestep  0
velocity        freeatoms create ${T2} 12447 dist gaussian sum no mom yes rot yes
 
fix             1 freeatoms nvt temp ${T} ${T} 0.1
thermo          100
thermo_style    custom step temp press v_peatom

run             ${neq}

write_restart   ${res}/equil.restart
#----------- Average ----------------------------------------
label           average
variable        tav index 50 #ps
variable        trun index 50 #ps
variable        nav equal ${tav}/dt
variable        nrun equal ${trun}/dt 


fix             2 freeatoms ave/atom 1 ${nav} ${nav} c_mype2

dump            1 freeatoms custom ${nav} ${res}/dump.final.dat &
                id x y z f_2
dump_modify     1 sort 1

thermo          400
thermo_style    custom step temp press v_peatom

run             ${nrun}
